Version identifier: 20.1.0.0 | 2020-11-10 | 9bedb6d68
Tried aggregator 2 times.
MIP Presolve eliminated 637 rows and 348 columns.
MIP Presolve modified 1303 coefficients.
Aggregator did 84 substitutions.
Reduced MIP has 560 rows, 475 columns, and 1784 nonzeros.
Reduced MIP has 148 binaries, 327 generals, 0 SOSs, and 0 indicators.
Presolve time = 0.01 sec. (2.82 ticks)
Found incumbent of value 546.000000 after 0.01 sec. (4.42 ticks)
Probing fixed 15 vars, tightened 115 bounds.
Probing time = 0.00 sec. (0.40 ticks)
Tried aggregator 1 time.
Detecting symmetries...
MIP Presolve eliminated 225 rows and 15 columns.
MIP Presolve modified 42 coefficients.
Reduced MIP has 335 rows, 460 columns, and 1094 nonzeros.
Reduced MIP has 211 binaries, 249 generals, 0 SOSs, and 0 indicators.
Presolve time = 0.00 sec. (1.23 ticks)
Probing time = 0.00 sec. (0.11 ticks)
Clique table members: 31.
MIP emphasis: balance optimality and feasibility.
MIP search method: dynamic search.
Parallel mode: deterministic, using up to 24 threads.
Root relaxation solution time = 0.00 sec. (0.81 ticks)

        Nodes                                         Cuts/
   Node  Left     Objective  IInf  Best Integer    Best Bound    ItCnt     Gap

*     0+    0                          546.0000        0.0000           100.00%
*     0+    0                           24.0000        0.0000           100.00%
      0     0        0.0000    25       24.0000        0.0000      108  100.00%
*     0+    0                           10.0000        0.0000           100.00%
      0     0        1.1422   163       10.0000      Cuts: 93      293   88.58%
      0     0        3.5799   126       10.0000      Cuts: 74      387   64.20%
      0     0        4.3523   161       10.0000      Cuts: 56      477   56.48%
      0     0        4.7780   189       10.0000      Cuts: 55      678   52.22%
      0     0        4.7875    91       10.0000      Cuts: 45      734   52.12%
      0     0        5.2450    69       10.0000      Cuts: 40      781   47.55%
      0     0        5.3250    87       10.0000      Cuts: 28      809   46.75%
      0     0        5.3338   168       10.0000      Cuts: 27      943   46.66%
      0     0        5.5000    28       10.0000      Cuts: 36     1033   45.00%
      0     0        5.5000   101       10.0000      Cuts: 16     1086   45.00%
      0     0        5.5009   180       10.0000  ZeroHalf: 26     1149   44.99%
      0     0        5.5010   196       10.0000      Cuts: 51     1191   44.99%
*     0+    0                            8.0000        5.5010            31.24%
      0     0        cutoff              8.0000        8.0000     1191    0.00%
Elapsed time = 0.80 sec. (70.10 ticks, tree = 0.01 MB, solutions = 4)

Implied bound cuts applied:  9
Flow cuts applied:  5
Mixed integer rounding cuts applied:  13
Zero-half cuts applied:  23
Gomory fractional cuts applied:  3

Root node processing (before b&c):
  Real time             =    0.80 sec. (70.16 ticks)
Parallel b&c, 24 threads:
  Real time             =    0.00 sec. (0.00 ticks)
  Sync time (average)   =    0.00 sec.
  Wait time (average)   =    0.00 sec.
                          ------------
Total (root+branch&cut) =    0.80 sec. (70.16 ticks)

Solution status = Optimal
Solution LB = 8
Solution UB = 8
Runtime = 0.805776 seconds
	Command being timed: "/home/min/git_repos/CS598MEBProject/CNT-ILP/build/cnt -s 2 ./output/k6_n15/simC_c1_k6_n15_u2_s2_del02.input-left.cnp"
	User time (seconds): 14.33
	System time (seconds): 0.04
	Percent of CPU this job got: 1750%
	Elapsed (wall clock) time (h:mm:ss or m:ss): 0:00.82
	Average shared text size (kbytes): 0
	Average unshared data size (kbytes): 0
	Average stack size (kbytes): 0
	Average total size (kbytes): 0
	Maximum resident set size (kbytes): 48632
	Average resident set size (kbytes): 0
	Major (requiring I/O) page faults: 0
	Minor (reclaiming a frame) page faults: 9252
	Voluntary context switches: 2701
	Involuntary context switches: 1930
	Swaps: 0
	File system inputs: 0
	File system outputs: 16
	Socket messages sent: 0
	Socket messages received: 0
	Signals delivered: 0
	Page size (bytes): 4096
	Exit status: 0
